<number of tasks>
20

<cycle time>
1000

<order strength>
0,216


<task times>
1 84
2 184
3 465
4 262
5 361
6 62
7 173
8 477
9 298
10 44
11 248
12 31
13 176
14 313
15 84
16 326
17 341
18 168
19 168
20 423

<precedence relations>
1,6
2,7
3,8
4,9
5,10
6,11
7,12
8,12
9,14
10,13
11,16
12,17
12,18
13,15
15,19
17,20

<end>
